DIMENSION: 12
EDGE_WEIGHT_TYPE: EXPLICIT
EDGE_WEIGHT_FORMAT: FULL_MATRIX
EDGE_WEIGHT_SECTION:
32767 32767 6 54 14 94 29 40 33 62 69 8 
32767 32767 89 18 43 73 72 32767 32767 42 32767 55 
6 89 32767 74 44 92 57 37 34 5 54 6 
54 18 74 32767 32767 55 32767 79 32767 56 46 49 
14 43 44 32767 32767 61 4 44 42 67 41 94 
94 73 92 55 61 32767 32767 5 32767 57 59 70 
29 72 57 32767 4 32767 32767 64 2 12 32767 72 
40 32767 37 79 44 5 64 32767 24 45 50 69 
33 32767 34 32767 42 32767 2 24 32767 93 81 36 
62 42 5 56 67 57 12 45 93 32767 10 93 
69 32767 54 46 41 59 32767 50 81 10 32767 81 
8 55 6 49 94 70 72 69 36 93 81 32767 
EOF